 vasp.6.1.0 28Jan20 (build Jan 12 2021 17:29:42) complex

 INCAR:
 POTCAR:    PAW_PBE Si_GW 04May2012
 POTCAR:    PAW_PBE C_GW 28Sep2005
 POTCAR:    PAW_PBE Si_GW 04May2012
   VRHFIN =Si: s2p2

   TITEL  = PAW_PBE Si_GW 04May2012
   POMASS =   28.085; ZVAL   =    4.000    mass and valenz
   ENMAX  =  245.345; ENMIN  =  184.009 eV

 POTCAR:    PAW_PBE C_GW 28Sep2005
   VRHFIN =C: s2p2

   TITEL  = PAW_PBE C_GW 28Sep2005
   POMASS =   12.011; ZVAL   =    4.000    mass and valenz
   ENMAX  =  413.992; ENMIN  =  310.494 eV

  PAW_PBE Si_GW 04May2012               :
  PAW_PBE C_GW 28Sep2005                :

 POSCAR: system SiC
  positions in cartesian coordinates
 exchange correlation table for  LEXCH =        8
   RHO(1)=    0.500       N(1)  =     2000
   RHO(2)=  100.500       N(2)  =     4000

 ion  position               nearest neighbor table
   1  0.000  0.000  0.000-   2 1.88   2 1.88   2 1.88   2 1.88
   2  0.250  0.250  0.250-   1 1.88   1 1.88   1 1.88   1 1.88

  LATTYP: Found a face centered cubic cell.
 ALAT       =     4.3500000000

  Lattice vectors:

 A1 = (   2.1750000000,   2.1750000000,   0.0000000000)
 A2 = (   0.0000000000,   2.1750000000,   2.1750000000)
 A3 = (   2.1750000000,   0.0000000000,   2.1750000000)

Analysis of symmetry for initial positions (statically):
 Subroutine PRICEL returns:
 Original cell was already a primitive cell.

 Routine SETGRP: Setting up the symmetry group for a
 face centered cubic supercell.

 Subroutine GETGRP returns: Found 24 space group operations
 (whereof 24 operations were pure point group operations)
 out of a pool of 48 trial point group operations.

The static configuration has the point symmetry T_d .

Analysis of symmetry for dynamics (positions and initial velocities):
 Subroutine PRICEL returns:
 Original cell was already a primitive cell.

 Routine SETGRP: Setting up the symmetry group for a
 face centered cubic supercell.

 Subroutine GETGRP returns: Found 24 space group operations
 (whereof 24 operations were pure point group operations)
 out of a pool of 48 trial point group operations.

The dynamic configuration has the point symmetry T_d .

 Subroutine INISYM returns: Found 24 space group operations
 (whereof 24 operations are pure point group operations),
 and found     1 'primitive' translations

                                     Primitive cell

  volume of cell :      20.5782

  direct lattice vectors                    reciprocal lattice vectors
     2.175000000  2.175000000  0.000000000     0.229885057  0.229885057 -0.229885057
     0.000000000  2.175000000  2.175000000    -0.229885057  0.229885057  0.229885057
     2.175000000  0.000000000  2.175000000     0.229885057 -0.229885057  0.229885057

  length of vectors
     3.075914498  3.075914498  3.075914498     0.398172599  0.398172599  0.398172599

  position of ions in fractional coordinates (direct lattice)
     0.000000000  0.000000000  0.000000000
     0.250000000  0.250000000  0.250000000

  ion indices of the primitive-cell ions
   primitive index   ion index
                 1           1
                 2           2

 KPOINTS: 6x6x6

Automatic generation of k-mesh.
Space group operators:
 irot       det(A)        alpha          n_x          n_y          n_z        tau_x        tau_y        tau_z
    1     1.000000     0.000001     1.000000     0.000000     0.000000     0.000000     0.000000     0.000000
    2     1.000000   120.000000    -0.577350    -0.577350    -0.577350     0.000000     0.000000     0.000000
    3     1.000000   120.000000     0.577350     0.577350     0.577350     0.000000     0.000000     0.000000
    4    -1.000000    90.000000     0.000000    -1.000000    -0.000000     0.000000     0.000000     0.000000
    5    -1.000000   179.999999     0.707107     0.707107    -0.000000     0.000000     0.000000     0.000000
    6    -1.000000    90.000000     1.000000    -0.000000    -0.000000     0.000000     0.000000     0.000000
    7     1.000000   179.999999    -0.000000    -1.000000    -0.000000     0.000000     0.000000     0.000000
    8     1.000000   120.000000     0.577350     0.577350    -0.577350     0.000000     0.000000     0.000000
    9     1.000000   120.000000     0.577350    -0.577350    -0.577350     0.000000     0.000000     0.000000
   10    -1.000000    90.000000     0.000000     1.000000     0.000000     0.000000     0.000000     0.000000
   11    -1.000000    90.000000     0.000000     0.000000    -1.000000     0.000000     0.000000     0.000000
   12    -1.000000   179.999999    -0.000000    -0.707107    -0.707107     0.000000     0.000000     0.000000
   13     1.000000   120.000000    -0.577350     0.577350     0.577350     0.000000     0.000000     0.000000
   14     1.000000   120.000000    -0.577350     0.577350    -0.577350     0.000000     0.000000     0.000000
   15     1.000000   179.999999    -0.000000    -0.000000    -1.000000     0.000000     0.000000     0.000000
   16    -1.000000    90.000000    -1.000000     0.000000     0.000000     0.000000     0.000000     0.000000
   17    -1.000000   179.999999     0.707107     0.000000     0.707107     0.000000     0.000000     0.000000
   18    -1.000000    90.000000     0.000000     0.000000     1.000000     0.000000     0.000000     0.000000
   19     1.000000   120.000000    -0.577350    -0.577350     0.577350     0.000000     0.000000     0.000000
   20     1.000000   179.999999     1.000000     0.000000     0.000000     0.000000     0.000000     0.000000
   21     1.000000   120.000000     0.577350    -0.577350     0.577350     0.000000     0.000000     0.000000
   22    -1.000000   179.999999    -0.707107     0.707107    -0.000000     0.000000     0.000000     0.000000
   23    -1.000000   179.999999     0.707107     0.000000    -0.707107     0.000000     0.000000     0.000000
   24    -1.000000   180.000000    -0.000000     0.707107    -0.707107     0.000000     0.000000     0.000000

 Subroutine IBZKPT returns following result:

 Found     16 irreducible k-points:

 Following reciprocal coordinates:
            Coordinates               Weight
  0.000000  0.000000  0.000000      1.000000
  0.166667  0.000000  0.000000      8.000000
  0.333333 -0.000000 -0.000000      8.000000
  0.500000 -0.000000  0.000000      4.000000
  0.166667  0.166667 -0.000000      6.000000
  0.333333  0.166667  0.000000     24.000000
  0.500000  0.166667 -0.000000     24.000000
 -0.333333  0.166667  0.000000     24.000000
 -0.166667  0.166667  0.000000     12.000000
  0.333333  0.333333 -0.000000      6.000000
  0.500000  0.333333  0.000000     24.000000
 -0.333333  0.333333 -0.000000     12.000000
  0.500000  0.500000 -0.000000      3.000000
  0.500000  0.333333  0.166667     24.000000
 -0.333333  0.333333  0.166667     24.000000
 -0.333333  0.500000  0.166667     12.000000

 Following cartesian coordinates:
            Coordinates               Weight
  0.000000  0.000000  0.000000      1.000000
  0.166667  0.166667 -0.166667      8.000000
  0.333333  0.333333 -0.333333      8.000000
  0.500000  0.500000 -0.500000      4.000000
  0.000000  0.333333 -0.000000      6.000000
  0.166667  0.500000 -0.166667     24.000000
  0.333333  0.666667 -0.333333     24.000000
 -0.500000 -0.166667  0.500000     24.000000
 -0.333333 -0.000000  0.333333     12.000000
 -0.000000  0.666667  0.000000      6.000000
  0.166667  0.833333 -0.166667     24.000000
 -0.666667  0.000000  0.666667     12.000000
 -0.000000  1.000000 -0.000000      3.000000
  0.333333  0.666667 -0.000000     24.000000
 -0.500000 -0.166667  0.833333     24.000000
 -0.666667  0.000000  1.000000     12.000000

 SYSTEM =  unknown system
 POSCAR =  system SiC

 Startparameter for this run:
   NWRITE =      2    write-flag & timer
   PREC   = normal    normal or accurate (medium, high low for compatibility)
   ISTART =      1    job   : 0-new  1-cont  2-samecut
   ICHARG =      0    charge: 1-file 2-atom 10-const
   ISPIN  =      1    spin polarized calculation?
   LNONCOLLINEAR =      F non collinear calculations
   LSORBIT =      F    spin-orbit coupling
   INIWAV =      1    electr: 0-lowe 1-rand  2-diag
   LASPH  =      F    aspherical Exc in radial PAW
   METAGGA=      F    non-selfconsistent MetaGGA calc.

 Electronic Relaxation 1
   ENCUT  =  414.0 eV  30.43 Ry    5.52 a.u.   5.10  5.10  5.10*2*pi/ulx,y,z
   ENINI  =  414.0     initial cutoff
   ENAUG  =  644.9 eV  augmentation charge cutoff
   NELM   =     60;   NELMIN=  2; NELMDL=  0     # of ELM steps
   EDIFF  = 0.1E-07   stopping-criterion for ELM
   LREAL  =      F    real-space projection
   NLSPLINE    = F    spline interpolate recip. space projectors
   LCOMPAT=      F    compatible to vasp.4.4
   GGA_COMPAT  = T    GGA compatible to vasp.4.4-vasp.4.6
   LMAXPAW     = -100 max onsite density
   LMAXMIX     =    2 max onsite mixed and CHGCAR
   VOSKOWN=      0    Vosko Wilk Nusair interpolation
   ROPT   =    0.00000   0.00000
 Ionic relaxation
   EDIFFG = 0.1E-06   stopping-criterion for IOM
   NSW    =      0    number of steps for IOM
   NBLOCK =      1;   KBLOCK =      1    inner block; outer block
   IBRION =     -1    ionic relax: 0-MD 1-quasi-New 2-CG
   NFREE  =      0    steps in history (QN), initial steepest desc. (CG)
   ISIF   =      2    stress and relaxation
   IWAVPR =      0    prediction:  0-non 1-charg 2-wave 3-comb
   ISYM   =      2    0-nonsym 1-usesym 2-fastsym
   LCORR  =      T    Harris-Foulkes like correction to forces

   POTIM  = 0.5000    time-step for ionic-motion
   TEIN   =    0.0    initial temperature
   TEBEG  =    0.0;   TEEND  =   0.0 temperature during run
   SMASS  =  -3.00    Nose mass-parameter (am)
   estimated Nose-frequenzy (Omega)   =  0.10E-29 period in steps = 0.13E+47 mass=  -0.216E-27a.u.
   SCALEE = 1.0000    scale energy and forces
   NPACO  =    256;   APACO  = 16.0  distance and # of slots for P.C.
   PSTRESS=    0.0 pullay stress

  Mass of Ions in am
   POMASS =  28.09 12.01
  Ionic Valenz
   ZVAL   =   4.00  4.00
  Atomic Wigner-Seitz radii
  virtual crystal weights
   VCA    =   1.00  1.00
   NELECT =       8.0000    total number of electrons
   NUPDOWN=      -1.0000    fix difference up-down

 DOS related values:
   EMIN   =  10.00;   EMAX   =-10.00  energy-range for DOS
   EFERMI =   0.00
   ISMEAR =     0;   SIGMA  =   0.01  broadening in eV -4-tet -1-fermi 0-gaus

 Electronic relaxation 2 (details)
   IALGO  =     90    algorithm
   LDIAG  =      T    sub-space diagonalisation (order eigenvalues)
   LSUBROT=      F    optimize rotation matrix (better conditioning)
   TURBO    =      0    0=normal 1=particle mesh
   IRESTART =      0    0=no restart 2=restart with 2 vectors
   NREBOOT  =      0    no. of reboots
   NMIN     =      0    reboot dimension
   EREF     =   0.00    reference energy to select bands
   IMIX   =      4    mixing-type and parameters
     AMIX     =   0.40;   BMIX     =  1.00
     AMIX_MAG =   1.60;   BMIX_MAG =  1.00
     AMIN     =   0.10
     WC   =   100.;   INIMIX=   1;  MIXPRE=   1;  MAXMIX= -45

 Intra band minimization:
   WEIMIN = 0.0000     energy-eigenvalue tresh-hold
   EBREAK =  0.39E-10  absolut break condition
   DEPER  =   0.30     relativ break condition

[...]
   12.113715   -5.364333   -5.364333   -5.364333    0.000000    0.000000   -0.000000
   12.480797   -3.816497   -3.816497   -3.816497    0.000000    0.000000   -0.000000
   12.847879   -3.016962   -3.016962   -3.016962    0.000000    0.000000   -0.000000
   13.214961   -2.012072   -2.012072   -2.012072   -0.000000    0.000000   -0.000000
   13.582044   -2.688157   -2.688157   -2.688157    0.000000    0.000000   -0.000000
   13.949126   -2.426117   -2.426117   -2.426117    0.000000    0.000000   -0.000000
   14.316208   -1.220437   -1.220437   -1.220437    0.000000    0.000000   -0.000000
   14.683291   -2.027775   -2.027775   -2.027775    0.000000    0.000000   -0.000000
   15.050373   -1.091497   -1.091497   -1.091497    0.000000    0.000000   -0.000000
   15.417455   -2.016605   -2.016605   -2.016605    0.000000    0.000000   -0.000000
   15.784537   -1.368889   -1.368889   -1.368889    0.000000    0.000000   -0.000000
   16.151620   -1.127900   -1.127900   -1.127900    0.000000    0.000000   -0.000000
   16.518702   -0.844390   -0.844390   -0.844390    0.000000    0.000000   -0.000000
   16.885784   -1.235835   -1.235835   -1.235835    0.000000    0.000000   -0.000000
   17.252866   -0.654505   -0.654505   -0.654505    0.000000    0.000000   -0.000000
   17.619949   -0.733905   -0.733905   -0.733905    0.000000    0.000000   -0.000000
   17.987031   -1.041810   -1.041810   -1.041810    0.000000    0.000000   -0.000000
   18.354113   -0.659366   -0.659366   -0.659366    0.000000    0.000000   -0.000000
   18.721195   -0.731294   -0.731294   -0.731294    0.000000    0.000000   -0.000000
   19.088278   -0.542767   -0.542767   -0.542767    0.000000    0.000000   -0.000000
   19.455360   -0.481862   -0.481862   -0.481862    0.000000    0.000000   -0.000000
   19.822442   -0.292512   -0.292512   -0.292512    0.000000    0.000000   -0.000000
   20.189524   -0.191235   -0.191235   -0.191235    0.000000    0.000000   -0.000000
   20.556607   -0.248652   -0.248652   -0.248652    0.000000    0.000000   -0.000000
   20.923689   -0.046228   -0.046228   -0.046228    0.000000    0.000000   -0.000000
   21.290771   -0.248490   -0.248490   -0.248490    0.000000    0.000000   -0.000000
   21.657854   -0.221365   -0.221365   -0.221365    0.000000    0.000000   -0.000000
[...]
  141.326671    0.972307    0.972307    0.972307    0.000000    0.000000   -0.000000
  141.693753    0.972460    0.972460    0.972460    0.000000    0.000000   -0.000000
  142.060836    0.972611    0.972611    0.972611    0.000000    0.000000   -0.000000
  142.427918    0.972761    0.972761    0.972761    0.000000    0.000000   -0.000000
  142.795000    0.972910    0.972910    0.972910    0.000000    0.000000   -0.000000
  143.162082    0.973057    0.973057    0.973057    0.000000    0.000000   -0.000000
  143.529165    0.973203    0.973203    0.973203    0.000000    0.000000   -0.000000
  143.896247    0.973348    0.973348    0.973348    0.000000    0.000000   -0.000000
  144.263329    0.973491    0.973491    0.973491    0.000000    0.000000   -0.000000
  144.630412    0.973634    0.973634    0.973634    0.000000    0.000000   -0.000000
  144.997494    0.973775    0.973775    0.973775    0.000000    0.000000   -0.000000
  145.364576    0.973915    0.973915    0.973915    0.000000    0.000000   -0.000000
  145.731658    0.974054    0.974054    0.974054    0.000000    0.000000   -0.000000
  146.098741    0.974191    0.974191    0.974191    0.000000    0.000000   -0.000000
  146.465823    0.974328    0.974328    0.974328    0.000000    0.000000   -0.000000

  frequency dependent IMAGINARY DIELECTRIC FUNCTION (independent particle, no local field effects) current-current
     E(ev)      X         Y         Z        XY        YZ        ZX
    0.000000   36.921083   36.921083   36.921083   -0.000000   -0.000000   -0.000000
    0.367082    3.712812    3.712812    3.712812   -0.000000   -0.000000   -0.000000
    0.734165    1.888439    1.888439    1.888439   -0.000000   -0.000000   -0.000000
    1.101247    1.296104    1.296104    1.296104   -0.000000   -0.000000   -0.000000
    1.468329    1.013741    1.013741    1.013741   -0.000000   -0.000000   -0.000000
    1.835411    0.857972    0.857972    0.857972   -0.000000   -0.000000   -0.000000
    2.202494    0.769042    0.769042    0.769042   -0.000000   -0.000000   -0.000000
    2.569576    0.723398    0.723398    0.723398   -0.000000   -0.000000   -0.000000
    2.936658    0.712804    0.712804    0.712804   -0.000000   -0.000000   -0.000000
    3.303740    0.739939    0.739939    0.739939   -0.000000   -0.000000   -0.000000
    3.670823    0.825841    0.825841    0.825841   -0.000000   -0.000000   -0.000000
    4.037905    1.070057    1.070057    1.070057   -0.000000   -0.000000   -0.000000
    4.404987    2.911268    2.911268    2.911268   -0.000000   -0.000000    0.000000
    4.772069    2.403567    2.403567    2.403567   -0.000000   -0.000000   -0.000000
    5.139152    6.220976    6.220976    6.220976   -0.000000   -0.000000    0.000000
    5.506234   25.478757   25.478757   25.478757   -0.000000   -0.000000    0.000000
    5.873316    7.693068    7.693068    7.693068   -0.000000   -0.000000    0.000000
    6.240398    8.173256    8.173256    8.173256   -0.000000   -0.000000    0.000000
    6.607481   48.047623   48.047623   48.047623   -0.000000   -0.000000    0.000000
    6.974563   12.920335   12.920335   12.920335   -0.000000   -0.000000    0.000000
    7.341645   10.565467   10.565467   10.565467   -0.000000   -0.000000    0.000000
    7.708728    6.780738    6.780738    6.780738   -0.000000   -0.000000    0.000000
    8.075810    9.585276    9.585276    9.585276   -0.000000   -0.000000    0.000000
    8.442892   13.846112   13.846112   13.846112   -0.000000   -0.000000    0.000000
    8.809974    5.309174    5.309174    5.309174   -0.000000   -0.000000    0.000000
    9.177057    4.818997    4.818997    4.818997   -0.000000   -0.000000    0.000000
    9.544139    8.671163    8.671163    8.671163   -0.000000   -0.000000    0.000000
    9.911221    3.196741    3.196741    3.196741    0.000000    0.000000    0.000000
   10.278303    3.606815    3.606815    3.606815   -0.000000   -0.000000    0.000000
   10.645386    9.923559    9.923559    9.923559   -0.000000   -0.000000    0.000000
   11.012468   10.268068   10.268068   10.268068   -0.000000    0.000000    0.000000
   11.379550    5.691218    5.691218    5.691218   -0.000000   -0.000000    0.000000
   11.746632    4.847284    4.847284    4.847284   -0.000000   -0.000000    0.000000
   12.113715    1.258263    1.258263    1.258263    0.000000    0.000000    0.000000
   12.480797    1.800525    1.800525    1.800525    0.000000   -0.000000    0.000000
   12.847879    1.166656    1.166656    1.166656    0.000000   -0.000000    0.000000
   13.214961    1.227384    1.227384    1.227384   -0.000000   -0.000000   -0.000000
   13.582044    1.033983    1.033983    1.033983    0.000000   -0.000000   -0.000000
   13.949126    0.861120    0.861120    0.861120   -0.000000   -0.000000    0.000000
   14.316208    0.685670    0.685670    0.685670   -0.000000   -0.000000   -0.000000
   14.683291    1.023259    1.023259    1.023259    0.000000    0.000000    0.000000
   15.050373    1.435001    1.435001    1.435001   -0.000000   -0.000000    0.000000
   15.417455    0.854605    0.854605    0.854605   -0.000000   -0.000000    0.000000
   15.784537    0.735816    0.735816    0.735816   -0.000000   -0.000000    0.000000
   16.151620    0.512318    0.512318    0.512318   -0.000000   -0.000000    0.000000
   16.518702    0.981678    0.981678    0.981678   -0.000000   -0.000000    0.000000
   16.885784    0.426317    0.426317    0.426317   -0.000000   -0.000000    0.000000
   17.252866    0.614096    0.614096    0.614096   -0.000000   -0.000000    0.000000
   17.619949    0.805239    0.805239    0.805239   -0.000000   -0.000000    0.000000
   17.987031    0.558906    0.558906    0.558906    0.000000   -0.000000    0.000000
   18.354113    0.270371    0.270371    0.270371    0.000000   -0.000000    0.000000
   18.721195    0.504637    0.504637    0.504637    0.000000   -0.000000    0.000000
   19.088278    0.362861    0.362861    0.362861    0.000000   -0.000000    0.000000
   19.455360    0.213251    0.213251    0.213251    0.000000   -0.000000    0.000000
   19.822442    0.180001    0.180001    0.180001    0.000000   -0.000000    0.000000
   20.189524    0.253336    0.253336    0.253336   -0.000000   -0.000000    0.000000
   20.556607    0.264721    0.264721    0.264721   -0.000000   -0.000000    0.000000
   20.923689    0.499668    0.499668    0.499668   -0.000000   -0.000000    0.000000
   21.290771    0.264550    0.264550    0.264550    0.000000   -0.000000    0.000000
   21.657854    0.183511    0.183511    0.183511   -0.000000   -0.000000    0.000000
[...]
  141.326671    0.000003    0.000003    0.000003    0.000000    0.000000    0.000000
  141.693753    0.000003    0.000003    0.000003    0.000000    0.000000    0.000000
  142.060836    0.000002    0.000002    0.000002    0.000000    0.000000    0.000000
  142.427918    0.000002    0.000002    0.000002    0.000000    0.000000    0.000000
  142.795000    0.000002    0.000002    0.000002    0.000000    0.000000    0.000000
  143.162082    0.000002    0.000002    0.000002    0.000000    0.000000    0.000000
  143.529165    0.000002    0.000002    0.000002    0.000000    0.000000    0.000000
  143.896247    0.000002    0.000002    0.000002    0.000000    0.000000    0.000000
  144.263329    0.000002    0.000002    0.000002    0.000000    0.000000    0.000000
  144.630412    0.000002    0.000002    0.000002    0.000000    0.000000    0.000000
  144.997494    0.000002    0.000002    0.000002    0.000000    0.000000    0.000000
  145.364576    0.000002    0.000002    0.000002    0.000000    0.000000    0.000000
  145.731658    0.000002    0.000002    0.000002    0.000000    0.000000    0.000000
  146.098741    0.000002    0.000002    0.000002    0.000000    0.000000    0.000000
  146.465823    0.000002    0.000002    0.000002    0.000000    0.000000    0.000000

  frequency dependent      REAL DIELECTRIC FUNCTION (independent particle, no local field effects) current-current
     E(ev)        X           Y           Z          XY          YZ          ZX
    0.000000    7.770676    7.770676    7.770676   -0.000000   -0.000000    0.000000
    0.367082    7.789594    7.789594    7.789594   -0.000000   -0.000000    0.000000
    0.734165    7.847722    7.847722    7.847722   -0.000000   -0.000000    0.000000
    1.101247    7.947383    7.947383    7.947383   -0.000000   -0.000000    0.000000
    1.468329    8.093122    8.093122    8.093122   -0.000000   -0.000000    0.000000
    1.835411    8.292169    8.292169    8.292169   -0.000000   -0.000000    0.000000
    2.202494    8.555616    8.555616    8.555616   -0.000000   -0.000000    0.000000
    2.569576    8.900627    8.900627    8.900627   -0.000000   -0.000000    0.000000
    2.936658    9.354815    9.354815    9.354815   -0.000000   -0.000000    0.000000
    3.303740    9.966100    9.966100    9.966100   -0.000000   -0.000000    0.000000
    3.670823   10.829729   10.829729   10.829729   -0.000000   -0.000000    0.000000
    4.037905   12.193317   12.193317   12.193317   -0.000000   -0.000000    0.000000
    4.404987   15.031267   15.031267   15.031267   -0.000000   -0.000000    0.000000
    4.772069   13.403203   13.403203   13.403203   -0.000000   -0.000000    0.000000
    5.139152   20.706298   20.706298   20.706298   -0.000000   -0.000000    0.000000
    5.506234   11.429187   11.429187   11.429187   -0.000000   -0.000000    0.000000
    5.873316   14.253246   14.253246   14.253246   -0.000000   -0.000000    0.000000
    6.240398   16.116386   16.116386   16.116386   -0.000000   -0.000000    0.000000
    6.607481   15.602183   15.602183   15.602183   -0.000000   -0.000000    0.000000
    6.974563  -15.904296  -15.904296  -15.904296    0.000000    0.000000   -0.000000
    7.341645   -2.023114   -2.023114   -2.023114    0.000000    0.000000   -0.000000
    7.708728   -0.487992   -0.487992   -0.487992    0.000000    0.000000   -0.000000
    8.075810    1.960089    1.960089    1.960089    0.000000    0.000000   -0.000000
    8.442892   -1.665014   -1.665014   -1.665014    0.000000    0.000000    0.000000
    8.809974   -2.321797   -2.321797   -2.321797    0.000000    0.000000    0.000000
    9.177057   -3.626709   -3.626709   -3.626709    0.000000    0.000000   -0.000000
    9.544139   -3.887304   -3.887304   -3.887304    0.000000    0.000000   -0.000000
    9.911221   -3.549854   -3.549854   -3.549854    0.000000    0.000000   -0.000000
   10.278303   -1.345019   -1.345019   -1.345019   -0.000000    0.000000   -0.000000
   10.645386    0.441523    0.441523    0.441523    0.000000    0.000000   -0.000000
   11.012468   -4.415007   -4.415007   -4.415007   -0.000000    0.000000   -0.000000
   11.379550   -2.978373   -2.978373   -2.978373    0.000000    0.000000   -0.000000
   11.746632   -6.164313   -6.164313   -6.164313    0.000000    0.000000   -0.000000
   12.113715   -5.383688   -5.383688   -5.383688    0.000000    0.000000   -0.000000
   12.480797   -3.843446   -3.843446   -3.843446    0.000000    0.000000   -0.000000
   12.847879   -3.033190   -3.033190   -3.033190    0.000000    0.000000   -0.000000
   13.214961   -2.029303   -2.029303   -2.029303    0.000000    0.000000   -0.000000
   13.582044   -2.700873   -2.700873   -2.700873    0.000000    0.000000   -0.000000
   13.949126   -2.436800   -2.436800   -2.436800    0.000000    0.000000   -0.000000
   14.316208   -1.228553   -1.228553   -1.228553    0.000000    0.000000   -0.000000
   14.683291   -2.040049   -2.040049   -2.040049    0.000000    0.000000   -0.000000
   15.050373   -1.109148   -1.109148   -1.109148    0.000000    0.000000   -0.000000
   15.417455   -2.026410   -2.026410   -2.026410    0.000000    0.000000   -0.000000
   15.784537   -1.376825   -1.376825   -1.376825    0.000000    0.000000   -0.000000
   16.151620   -1.133124   -1.133124   -1.133124    0.000000    0.000000   -0.000000
   16.518702   -0.855158   -0.855158   -0.855158    0.000000    0.000000   -0.000000
   16.885784   -1.239699   -1.239699   -1.239699    0.000000    0.000000   -0.000000
   17.252866   -0.660535   -0.660535   -0.660535    0.000000    0.000000   -0.000000
   17.619949   -0.742429   -0.742429   -0.742429    0.000000    0.000000   -0.000000
   17.987031   -1.047116   -1.047116   -1.047116    0.000000    0.000000   -0.000000
   18.354113   -0.661437   -0.661437   -0.661437    0.000000    0.000000   -0.000000
   18.721195   -0.735931   -0.735931   -0.735931    0.000000    0.000000   -0.000000
   19.088278   -0.545848   -0.545848   -0.545848    0.000000    0.000000   -0.000000
   19.455360   -0.483276   -0.483276   -0.483276    0.000000    0.000000   -0.000000
   19.822442   -0.293554   -0.293554   -0.293554    0.000000    0.000000   -0.000000
   20.189524   -0.193083   -0.193083   -0.193083    0.000000    0.000000   -0.000000
   20.556607   -0.250586   -0.250586   -0.250586    0.000000    0.000000   -0.000000
   20.923689   -0.050415   -0.050415   -0.050415    0.000000    0.000000   -0.000000
   21.290771   -0.250337   -0.250337   -0.250337    0.000000    0.000000   -0.000000
   21.657854   -0.222463   -0.222463   -0.222463    0.000000    0.000000   -0.000000
[...]
  141.326671    0.972322    0.972322    0.972322    0.000000    0.000000   -0.000000
  141.693753    0.972474    0.972474    0.972474    0.000000    0.000000   -0.000000
  142.060836    0.972626    0.972626    0.972626    0.000000    0.000000   -0.000000
  142.427918    0.972775    0.972775    0.972775    0.000000    0.000000   -0.000000
  142.795000    0.972924    0.972924    0.972924    0.000000    0.000000   -0.000000
  143.162082    0.973071    0.973071    0.973071    0.000000    0.000000   -0.000000
  143.529165    0.973217    0.973217    0.973217    0.000000    0.000000   -0.000000
  143.896247    0.973362    0.973362    0.973362    0.000000    0.000000   -0.000000
  144.263329    0.973505    0.973505    0.973505    0.000000    0.000000   -0.000000
  144.630412    0.973648    0.973648    0.973648    0.000000    0.000000   -0.000000
  144.997494    0.973789    0.973789    0.973789    0.000000    0.000000   -0.000000
  145.364576    0.973929    0.973929    0.973929    0.000000    0.000000   -0.000000
  145.731658    0.974067    0.974067    0.974067    0.000000    0.000000   -0.000000
  146.098741    0.974205    0.974205    0.974205    0.000000    0.000000   -0.000000
  146.465823    0.974341    0.974341    0.974341    0.000000    0.000000   -0.000000

 The outermost node in the dielectric function lies at epsilon=  23.3